(set-logic QF_SLIA)
(set-option :produce-models true)
(declare-const X String)
; /^(\u{00}\u{00}\u{00}\u{00}|.{4}(\u{00}\u{00}\u{00}\u{00}|.{12}))/s
(assert (str.in_re X (re.++ (str.to_re "/") (re.union (str.to_re "\u{00}\u{00}\u{00}\u{00}") (re.++ ((_ re.loop 4 4) re.allchar) (re.union (str.to_re "\u{00}\u{00}\u{00}\u{00}") ((_ re.loop 12 12) re.allchar)))) (str.to_re "/s\u{0a}"))))
; /\u{2f}blackmuscats?\u{3f}\d/Ui
(assert (not (str.in_re X (re.++ (str.to_re "//blackmuscat") (re.opt (str.to_re "s")) (str.to_re "?") (re.range "0" "9") (str.to_re "/Ui\u{0a}")))))
; /filename=[^\n]*\u{2e}mka/i
(assert (not (str.in_re X (re.++ (str.to_re "/filename=") (re.* (re.comp (str.to_re "\u{0a}"))) (str.to_re ".mka/i\u{0a}")))))
(assert (> (str.len X) 10))
(check-sat)
